; benchmark generated from python API
(set-info :status unknown)
(declare-fun x_epoch () Int)
(declare-fun y_epoch () Int)
(declare-fun x_shift_period_718174_epoch () Int)
(declare-fun x_year () Int)
(declare-fun x_month () Int)
(declare-fun x_day () Int)
(declare-fun x_shift_period_718174_year () Int)
(declare-fun x_shift_period_718174_month () Int)
(declare-fun x_shift_period_718174_day () Int)
(assert
 (>= x_epoch (- 36584)))
(assert
 (<= x_epoch 36829))
(assert
 (>= y_epoch (- 36584)))
(assert
 (<= y_epoch 36829))
(assert
 (= x_epoch 8371))
(assert
 (>= x_shift_period_718174_epoch (- 36584)))
(assert
 (<= x_shift_period_718174_epoch 36829))
(assert
 (let (($x196 (<= x_year 2100)))
 (let (($x635 (>= x_year 1900)))
 (let (($x3375 (= x_month 11)))
 (let (($x550 (= x_month 9)))
 (let (($x315 (= x_month 6)))
 (let (($x340 (= x_month 4)))
 (let ((?x358 (ite (or $x340 $x315 $x550 $x3375) 30 31)))
 (let (($x3127 (= (mod x_year 4) 0)))
 (let (($x600 (= (mod x_year 100) 0)))
 (let (($x146 (= (mod x_year 400) 0)))
 (let (($x2897 (ite $x146 true (ite $x600 false $x3127))))
 (let (($x560 (= x_month 2)))
 (let ((?x3309 (ite $x560 (ite $x2897 29 28) ?x358)))
 (let (($x3358 (>= x_day 1)))
 (let (($x787 (<= x_month 12)))
 (let (($x164 (>= x_month 1)))
 (and $x164 $x787 $x3358 (<= x_day ?x3309) $x635 $x196))))))))))))))))))
(assert
 (let (($x29 (or (and (= (mod 2000 4) 0) (and (distinct (mod 2000 100) 0) true)) (= (mod 2000 400) 0))))
 (let ((?x36 (ite (= 3 2) (ite $x29 31 31) (ite (= 3 1) (ite $x29 0 0) 0))))
 (let ((?x40 (ite $x29 60 59)))
 (let ((?x41 (ite (= 3 3) ?x40 ?x36)))
 (let ((?x46 (ite (= 3 4) (ite $x29 91 90) ?x41)))
 (let ((?x52 (ite (= 3 5) (ite $x29 121 120) ?x46)))
 (let ((?x58 (ite (= 3 6) (ite $x29 152 151) ?x52)))
 (let ((?x64 (ite (= 3 7) (ite $x29 182 181) ?x58)))
 (let ((?x70 (ite (= 3 8) (ite $x29 213 212) ?x64)))
 (let ((?x76 (ite (= 3 9) (ite $x29 244 243) ?x70)))
 (let ((?x82 (ite (= 3 10) (ite $x29 274 273) ?x76)))
 (let ((?x88 (ite (= 3 11) (ite $x29 305 304) ?x82)))
 (let ((?x16 (- (+ (* 365 (- 2000 1)) (div (- 2000 1) 4)) (div (- 2000 1) 100))))
 (let ((?x95 (+ (+ ?x16 (div (- 2000 1) 400)) (ite (= 3 12) (ite $x29 335 334) ?x88))))
 (let ((?x97 (+ ?x95 (- 1 1))))
 (let (($x3127 (= (mod x_year 4) 0)))
 (let (($x600 (= (mod x_year 100) 0)))
 (let (($x146 (= (mod x_year 400) 0)))
 (let (($x2897 (ite $x146 true (ite $x600 false $x3127))))
 (let (($x675 (= 2 x_month)))
 (let ((?x373 (ite $x675 (ite $x2897 31 31) (ite (= 1 x_month) (ite $x2897 0 0) 0))))
 (let (($x764 (= 3 x_month)))
 (let (($x463 (= 4 x_month)))
 (let ((?x670 (ite $x463 (ite $x2897 91 90) (ite $x764 (ite $x2897 60 59) ?x373))))
 (let (($x2211 (= 5 x_month)))
 (let (($x691 (= 6 x_month)))
 (let ((?x431 (ite $x691 (ite $x2897 152 151) (ite $x2211 (ite $x2897 121 120) ?x670))))
 (let (($x838 (= 7 x_month)))
 (let (($x539 (= 8 x_month)))
 (let ((?x2935 (ite $x539 (ite $x2897 213 212) (ite $x838 (ite $x2897 182 181) ?x431))))
 (let (($x909 (= 9 x_month)))
 (let (($x472 (= 10 x_month)))
 (let ((?x535 (ite $x472 (ite $x2897 274 273) (ite $x909 (ite $x2897 244 243) ?x2935))))
 (let (($x546 (= 11 x_month)))
 (let (($x3334 (= 12 x_month)))
 (let ((?x140 (ite $x3334 (ite $x2897 335 334) (ite $x546 (ite $x2897 305 304) ?x535))))
 (let ((?x806 (- (+ (* 365 (- x_year 1)) (div (- x_year 1) 4)) (div (- x_year 1) 100))))
 (let ((?x3942 (+ (+ (+ ?x806 (div (- x_year 1) 400)) ?x140) (- x_day 1))))
 (= x_epoch (- ?x3942 ?x97)))))))))))))))))))))))))))))))))))))))))
(assert
 (let (($x3050 (<= x_shift_period_718174_year 2100)))
 (let (($x1976 (>= x_shift_period_718174_year 1900)))
 (let (($x1175 (= x_shift_period_718174_month 11)))
 (let (($x4093 (= x_shift_period_718174_month 9)))
 (let (($x3722 (= x_shift_period_718174_month 6)))
 (let (($x2819 (= x_shift_period_718174_month 4)))
 (let ((?x3302 (ite (or $x2819 $x3722 $x4093 $x1175) 30 31)))
 (let (($x926 (= (mod x_shift_period_718174_year 4) 0)))
 (let (($x2996 (= (mod x_shift_period_718174_year 100) 0)))
 (let (($x3432 (= (mod x_shift_period_718174_year 400) 0)))
 (let (($x1468 (ite $x3432 true (ite $x2996 false $x926))))
 (let (($x2595 (= x_shift_period_718174_month 2)))
 (let (($x1550 (>= x_shift_period_718174_day 1)))
 (let (($x3511 (<= x_shift_period_718174_month 12)))
 (let (($x3144 (>= x_shift_period_718174_month 1)))
 (and $x3144 $x3511 $x1550 (<= x_shift_period_718174_day (ite $x2595 (ite $x1468 29 28) ?x3302)) $x1976 $x3050)))))))))))))))))
(assert
 (let (($x29 (or (and (= (mod 2000 4) 0) (and (distinct (mod 2000 100) 0) true)) (= (mod 2000 400) 0))))
 (let ((?x36 (ite (= 3 2) (ite $x29 31 31) (ite (= 3 1) (ite $x29 0 0) 0))))
 (let ((?x40 (ite $x29 60 59)))
 (let ((?x41 (ite (= 3 3) ?x40 ?x36)))
 (let ((?x46 (ite (= 3 4) (ite $x29 91 90) ?x41)))
 (let ((?x52 (ite (= 3 5) (ite $x29 121 120) ?x46)))
 (let ((?x58 (ite (= 3 6) (ite $x29 152 151) ?x52)))
 (let ((?x64 (ite (= 3 7) (ite $x29 182 181) ?x58)))
 (let ((?x70 (ite (= 3 8) (ite $x29 213 212) ?x64)))
 (let ((?x76 (ite (= 3 9) (ite $x29 244 243) ?x70)))
 (let ((?x82 (ite (= 3 10) (ite $x29 274 273) ?x76)))
 (let ((?x88 (ite (= 3 11) (ite $x29 305 304) ?x82)))
 (let ((?x16 (- (+ (* 365 (- 2000 1)) (div (- 2000 1) 4)) (div (- 2000 1) 100))))
 (let ((?x95 (+ (+ ?x16 (div (- 2000 1) 400)) (ite (= 3 12) (ite $x29 335 334) ?x88))))
 (let ((?x97 (+ ?x95 (- 1 1))))
 (let (($x926 (= (mod x_shift_period_718174_year 4) 0)))
 (let (($x2996 (= (mod x_shift_period_718174_year 100) 0)))
 (let (($x3432 (= (mod x_shift_period_718174_year 400) 0)))
 (let (($x1468 (ite $x3432 true (ite $x2996 false $x926))))
 (let ((?x1617 (ite (= 1 x_shift_period_718174_month) (ite $x1468 0 0) 0)))
 (let ((?x4104 (ite (= 3 x_shift_period_718174_month) (ite $x1468 60 59) (ite (= 2 x_shift_period_718174_month) (ite $x1468 31 31) ?x1617))))
 (let ((?x1466 (ite (= 5 x_shift_period_718174_month) (ite $x1468 121 120) (ite (= 4 x_shift_period_718174_month) (ite $x1468 91 90) ?x4104))))
 (let ((?x2091 (ite (= 7 x_shift_period_718174_month) (ite $x1468 182 181) (ite (= 6 x_shift_period_718174_month) (ite $x1468 152 151) ?x1466))))
 (let ((?x3631 (ite (= 9 x_shift_period_718174_month) (ite $x1468 244 243) (ite (= 8 x_shift_period_718174_month) (ite $x1468 213 212) ?x2091))))
 (let ((?x1082 (ite (= 11 x_shift_period_718174_month) (ite $x1468 305 304) (ite (= 10 x_shift_period_718174_month) (ite $x1468 274 273) ?x3631))))
 (let ((?x1434 (+ (* 365 (- x_shift_period_718174_year 1)) (div (- x_shift_period_718174_year 1) 4))))
 (let ((?x3650 (+ (- ?x1434 (div (- x_shift_period_718174_year 1) 100)) (div (- x_shift_period_718174_year 1) 400))))
 (let ((?x3366 (+ ?x3650 (ite (= 12 x_shift_period_718174_month) (ite $x1468 335 334) ?x1082))))
 (= x_shift_period_718174_epoch (- (+ ?x3366 (- x_shift_period_718174_day 1)) ?x97)))))))))))))))))))))))))))))))
(assert
 (let ((?x492 (* 12 x_year)))
 (let ((?x478 (+ ?x492 (- x_month 1))))
 (let ((?x3939 (+ ?x478 3)))
 (let ((?x3906 (div ?x3939 12)))
 (= x_shift_period_718174_year ?x3906))))))
(assert
 (let ((?x1773 (+ (mod (+ (+ (* 12 x_year) (- x_month 1)) 3) 12) 1)))
 (= x_shift_period_718174_month ?x1773)))
(assert
 (let ((?x1773 (+ (mod (+ (+ (* 12 x_year) (- x_month 1)) 3) 12) 1)))
 (let ((?x2545 (ite (or (= ?x1773 4) (= ?x1773 6) (= ?x1773 9) (= ?x1773 11)) 30 31)))
 (let ((?x492 (* 12 x_year)))
 (let ((?x478 (+ ?x492 (- x_month 1))))
 (let ((?x3939 (+ ?x478 3)))
 (let ((?x3906 (div ?x3939 12)))
 (let (($x2292 (ite (= (mod ?x3906 400) 0) true (ite (= (mod ?x3906 100) 0) false (= (mod ?x3906 4) 0)))))
 (let ((?x2443 (ite (= ?x1773 2) (ite $x2292 29 28) ?x2545)))
 (let ((?x3860 (ite (<= x_day ?x2443) x_day ?x2443)))
 (let (($x3375 (= x_month 11)))
 (let (($x550 (= x_month 9)))
 (let (($x315 (= x_month 6)))
 (let (($x340 (= x_month 4)))
 (let ((?x358 (ite (or $x340 $x315 $x550 $x3375) 30 31)))
 (let (($x3127 (= (mod x_year 4) 0)))
 (let (($x600 (= (mod x_year 100) 0)))
 (let (($x146 (= (mod x_year 400) 0)))
 (let (($x2897 (ite $x146 true (ite $x600 false $x3127))))
 (let (($x560 (= x_month 2)))
 (let ((?x3309 (ite $x560 (ite $x2897 29 28) ?x358)))
 (let (($x286 (= x_day ?x3309)))
 (= x_shift_period_718174_day (ite false (ite $x286 ?x2443 ?x3860) ?x3860))))))))))))))))))))))))
(assert
 (= y_epoch x_shift_period_718174_epoch))
(assert
 (= y_epoch 8460))
(check-sat)
